p cnf 280 330
c ind 117 118 119 120 0
c ind 121 122 123 124 125 126 127 128 129 130 0
c ind 131 132 133 134 135 136 137 138 139 140 0
c ind 141 142 143 144 145 146 147 148 149 150 0
c ind 151 152 153 154 155 156 157 158 159 160 0
c ind 161 162 163 164 165 166 167 168 169 170 0
c ind 171 172 173 174 175 176 177 178 179 180 0
c ind 181 182 183 184 185 186 187 188 189 190 0
c ind 191 192 193 194 195 196 197 198 199 200 0
c ind 201 202 203 204 205 206 207 208 209 210 0
c ind 211 212 213 214 215 216 217 218 219 220 0
c ind 221 222 223 224 225 226 227 228 229 230 0
c ind 231 232 233 234 235 236 237 238 239 240 0
c ind 241 242 243 244 245 246 247 248 249 250 0
c ind 251 252 253 254 255 256 257 258 259 260 0
c ind 261 262 263 264 265 266 267 268 269 270 0
c ind 271 272 273 274 275 276 277 278 279 280 0
64 0
-109 0
-1 -117 11 0
1 -117 -11 0
-1 -118 20 0
1 -118 -20 0
-2 -119 20 0
2 -119 -20 0
-2 -120 23 0
2 -120 -23 0
-2 -121 26 0
2 -121 -26 0
-3 -122 4 0
3 -122 -4 0
-3 -123 6 0
3 -123 -6 0
-3 -124 15 0
3 -124 -15 0
-3 -125 16 0
3 -125 -16 0
-3 -126 18 0
3 -126 -18 0
-3 -127 31 0
3 -127 -31 0
-3 -128 42 0
3 -128 -42 0
-3 -129 44 0
3 -129 -44 0
-3 -130 53 0
3 -130 -53 0
-3 -131 87 0
3 -131 -87 0
-3 -132 88 0
3 -132 -88 0
-3 -133 89 0
3 -133 -89 0
-3 -134 96 0
3 -134 -96 0
-4 -135 7 0
4 -135 -7 0
-4 -136 42 0
4 -136 -42 0
-4 -137 100 0
4 -137 -100 0
-4 -138 101 0
4 -138 -101 0
-4 -139 103 0
4 -139 -103 0
-5 -140 30 0
5 -140 -30 0
-5 -141 31 0
5 -141 -31 0
-5 -142 33 0
5 -142 -33 0
-5 -143 86 0
5 -143 -86 0
-5 -144 88 0
5 -144 -88 0
-5 -145 114 0
5 -145 -114 0
-7 -146 26 0
7 -146 -26 0
-7 -147 28 0
7 -147 -28 0
-7 -148 29 0
7 -148 -29 0
-7 -149 33 0
7 -149 -33 0
-7 -150 98 0
7 -150 -98 0
-7 -151 107 0
7 -151 -107 0
-7 -152 109 0
7 -152 -109 0
-7 -153 113 0
7 -153 -113 0
-8 -154 13 0
8 -154 -13 0
-8 -155 77 0
8 -155 -77 0
-9 -156 17 0
9 -156 -17 0
-9 -157 40 0
9 -157 -40 0
-9 -158 44 0
9 -158 -44 0
-9 -159 47 0
9 -159 -47 0
-9 -160 48 0
9 -160 -48 0
-9 -161 73 0
9 -161 -73 0
-9 -162 83 0
9 -162 -83 0
-9 -163 88 0
9 -163 -88 0
-10 -164 29 0
10 -164 -29 0
-10 -165 30 0
10 -165 -30 0
-10 -166 108 0
10 -166 -108 0
-10 -167 109 0
10 -167 -109 0
-11 -168 59 0
11 -168 -59 0
-12 -169 35 0
12 -169 -35 0
-12 -170 55 0
12 -170 -55 0
-12 -171 96 0
12 -171 -96 0
-13 -172 56 0
13 -172 -56 0
-13 -173 73 0
13 -173 -73 0
-13 -174 78 0
13 -174 -78 0
-13 -175 79 0
13 -175 -79 0
-13 -176 80 0
13 -176 -80 0
-13 -177 93 0
13 -177 -93 0
-14 -178 53 0
14 -178 -53 0
-14 -179 94 0
14 -179 -94 0
-14 -180 95 0
14 -180 -95 0
-15 -181 100 0
15 -181 -100 0
-15 -182 105 0
15 -182 -105 0
-17 -183 72 0
17 -183 -72 0
-17 -184 77 0
17 -184 -77 0
-18 -185 42 0
18 -185 -42 0
-18 -186 55 0
18 -186 -55 0
-18 -187 92 0
18 -187 -92 0
-19 -188 20 0
19 -188 -20 0
-20 -189 21 0
20 -189 -21 0
-20 -190 22 0
20 -190 -22 0
-20 -191 23 0
20 -191 -23 0
-22 -192 24 0
22 -192 -24 0
-22 -193 115 0
22 -193 -115 0
-23 -194 26 0
23 -194 -26 0
-24 -195 26 0
24 -195 -26 0
-25 -196 26 0
25 -196 -26 0
-26 -197 27 0
26 -197 -27 0
-26 -198 85 0
26 -198 -85 0
-26 -199 88 0
26 -199 -88 0
-26 -200 116 0
26 -200 -116 0
-27 -201 44 0
27 -201 -44 0
-27 -202 88 0
27 -202 -88 0
-28 -203 108 0
28 -203 -108 0
-28 -204 109 0
28 -204 -109 0
-31 -205 32 0
31 -205 -32 0
-33 -206 34 0
33 -206 -34 0
-33 -207 88 0
33 -207 -88 0
-33 -208 107 0
33 -208 -107 0
-34 -209 88 0
34 -209 -88 0
-35 -210 36 0
35 -210 -36 0
-35 -211 37 0
35 -211 -37 0
-35 -212 70 0
35 -212 -70 0
-35 -213 93 0
35 -213 -93 0
-36 -214 37 0
36 -214 -37 0
-37 -215 43 0
37 -215 -43 0
-38 -216 41 0
38 -216 -41 0
-38 -217 43 0
38 -217 -43 0
-39 -218 41 0
39 -218 -41 0
-39 -219 49 0
39 -219 -49 0
-40 -220 43 0
40 -220 -43 0
-41 -221 42 0
41 -221 -42 0
-41 -222 44 0
41 -222 -44 0
-42 -223 43 0
42 -223 -43 0
-42 -224 79 0
42 -224 -79 0
-42 -225 93 0
42 -225 -93 0
-43 -226 54 0
43 -226 -54 0
-45 -227 47 0
45 -227 -47 0
-46 -228 47 0
46 -228 -47 0
-46 -229 56 0
46 -229 -56 0
-48 -230 52 0
48 -230 -52 0
-49 -231 52 0
49 -231 -52 0
-49 -232 88 0
49 -232 -88 0
-50 -233 51 0
50 -233 -51 0
-50 -234 52 0
50 -234 -52 0
-54 -235 94 0
54 -235 -94 0
-55 -236 94 0
55 -236 -94 0
-55 -237 95 0
55 -237 -95 0
-56 -238 57 0
56 -238 -57 0
-58 -239 72 0
58 -239 -72 0
-58 -240 81 0
58 -240 -81 0
-58 -241 84 0
58 -241 -84 0
-59 -242 60 0
59 -242 -60 0
-59 -243 72 0
59 -243 -72 0
-60 -244 61 0
60 -244 -61 0
-61 -245 62 0
61 -245 -62 0
-61 -246 64 0
61 -246 -64 0
-62 -247 93 0
62 -247 -93 0
-63 -248 64 0
63 -248 -64 0
-63 -249 66 0
63 -249 -66 0
-63 -250 67 0
63 -250 -67 0
-63 -251 68 0
63 -251 -68 0
-64 -252 65 0
64 -252 -65 0
-68 -253 69 0
68 -253 -69 0
-68 -254 93 0
68 -254 -93 0
-71 -255 72 0
71 -255 -72 0
-74 -256 75 0
74 -256 -75 0
-74 -257 93 0
74 -257 -93 0
-75 -258 76 0
75 -258 -76 0
-76 -259 77 0
76 -259 -77 0
-78 -260 93 0
78 -260 -93 0
-80 -261 93 0
80 -261 -93 0
-82 -262 83 0
82 -262 -83 0
-83 -263 84 0
83 -263 -84 0
-85 -264 92 0
85 -264 -92 0
-86 -265 88 0
86 -265 -88 0
-87 -266 88 0
87 -266 -88 0
-88 -267 89 0
88 -267 -89 0
-90 -268 92 0
90 -268 -92 0
-91 -269 93 0
91 -269 -93 0
-92 -270 93 0
92 -270 -93 0
-96 -271 97 0
96 -271 -97 0
-98 -272 105 0
98 -272 -105 0
-99 -273 105 0
99 -273 -105 0
-100 -274 106 0
100 -274 -106 0
-102 -275 104 0
102 -275 -104 0
-103 -276 104 0
103 -276 -104 0
-109 -277 111 0
109 -277 -111 0
-110 -278 111 0
110 -278 -111 0
-111 -279 112 0
111 -279 -112 0
-113 -280 116 0
113 -280 -116 0
